50
12080

291 202
964 518
750 248
450 96
713 95
742 336
525 195
781 948
755 433
950 996
216 284
760 360
960 477
568 43
386 915
638 850
743 843
19 98
543 307
283 444
970 380
739 318
817 868
482 920
587 681
16 163
100 308
373 459
354 144
602 923
420 813
561 616
688 14
141 840
913 592
297 940
635 246
909 535
705 53
587 429
214 89
328 764
219 295
996 807
372 856
119 511
241 104
30 10
962 373
164 333
